
se = 80; % nombre de sessions
gr = 40; % nombre de grups de treball
cl = 12; % nombre de slots
minPapersPerSlot = 3; % minim nombre d'articles per sessio i slot
maxSesionsPar = 20; % maxim nombre de sessions paraleles

npMax = [4, 4, 4, 6, 6, 4, 6, 5, 6, 3, 5, 3]; % nombre maxim de papers per slot

np = [4, 10, 12, 7, 3, 15, 3, 5, 16, 8, 7, 9, 14, 15, 15, 16, 9, 10, 20, 17, 20, 18, 3, 13, 7, 9, 17, 17, 14, 11, 3, 11, 7, 16, 8, 5, 8, 3, 18, 3, 3, 11, 3, 16, 5, 3, 13, 12, 8, 3, 9, 3, 8, 7, 3, 12, 3, 6, 9, 3, 17, 16, 17, 14, 14, 4, 9, 16, 10, 10, 13, 3, 3, 13, 3, 6, 6, 11, 15, 18]; % nombre de papers acceptats a cada sessio

WG = [ {1}, {2}, {}, {3,4}, {5,6}, {}, {}, {7}, {}, {}, {8}, {}, {9,10,11}, {}, {}, {12,13}, {14}, {15}, {16}, {}, {17}, {}, {18}, {19,20,21}, {22}, {23}, {}, {}, {}, {24}, {25}, {}, {26}, {27}, {28}, {29}, {}, {30}, {}, {31}, {}, {32}, {}, {33}, {34,35,36}, {37}, {}, {38,39,40}, {1}, {}, {2}, {3}, {}, {4}, {5}, {}, {6}, {7,8}, {9,10,11}, {}, {12}, {13}, {14}, {15}, {}, {16}, {}, {}, {}, {17,18,19}, {20,21,22}, {23}, {24,25,26}, {27,28,29}, {}, {30}, {31}, {32}, {}, {33} ]; % grups per sessio

